# Solution for model conduction_srl_ilp
# Objective value = 8.7538923383956231e+00
Z_741_0_0 0
Z_741_0_1 0
Z_741_0_2 0
Z_741_0_3 0
Z_741_0_4 1
Z_319_0_0 0
Z_319_0_1 0
Z_319_0_2 1
Z_319_0_3 0
Z_319_0_4 0
Z_507_0_0 0
Z_507_0_1 0
Z_507_0_2 1
Z_507_0_3 0
Z_507_0_4 0
Z_545_1_0 0
Z_545_1_1 0
Z_545_1_2 1
Z_545_1_3 0
Z_545_1_4 0
Z_545_0_0 0
Z_545_0_1 0
Z_545_0_2 0
Z_545_0_3 0
Z_545_0_4 1
Z_663_6_0 1
Z_663_6_1 0
Z_663_6_2 0
Z_663_6_3 0
Z_663_6_4 0
Z_663_2_0 0
Z_663_2_1 0
Z_663_2_2 0
Z_663_2_3 0
Z_663_2_4 1
Z_663_1_0 0
Z_663_1_1 0
Z_663_1_2 0
Z_663_1_3 0
Z_663_1_4 1
Z_503_1_0 0
Z_503_1_1 0
Z_503_1_2 1
Z_503_1_3 0
Z_503_1_4 0
Z_503_0_0 1
Z_503_0_1 0
Z_503_0_2 0
Z_503_0_3 0
Z_503_0_4 0
Z_573_1_0 0
Z_573_1_1 0
Z_573_1_2 1
Z_573_1_3 0
Z_573_1_4 0
Z_573_0_0 1
Z_573_0_1 0
Z_573_0_2 0
Z_573_0_3 0
Z_573_0_4 0
Z_32_0_0 0
Z_32_0_1 0
Z_32_0_2 1
Z_32_0_3 0
Z_32_0_4 0
